NAME: GRASP_41_6
TYPE: TSP
COMMENT: line_41_6
DIMENSION: 41
EDGE_WEIGHT_TYPE: EUC_2D
NODE_COORD_SECTION
1 1672 4344
2 2846 1911
3 1380 3489
4 1812 2682
5 1524 234
6 2750 1307
7 4468 1303
8 951 4454
9 3525 4138
10 2732 2116
11 874 1356
12 3161 2658
13 3036 2498
14 2461 238
15 4224 2630
16 4260 1264
17 4749 2218
18 2610 1243
19 1999 4877
20 423 4491
21 2931 2244
22 4635 2794
23 2931 1904
24 3542 2633
25 4905 1479
26 1892 3157
27 1828 4414
28 900 2561
29 3338 2992
30 741 3090
31 4827 3649
32 3731 428
33 1770 524
34 4696 3411
35 3077 3264
36 1171 847
37 2115 4942
38 721 1761
39 4331 3192
40 1611 3188
41 3992 3050
